p cnf 7 27
1 -3 -1 0
-7 -6 -4 7 0
-7 0
1 2 0
3 -1 6 0
1 5 -1 7 0
-5 4 5 0
1 4 5 -7 0
-2 0
-2 0
-5 7 0
-5 4 -2 0
3 0
-5 0
3 -7 -5 7 0
1 0
2 4 -2 0
6 0
1 2 3 0
3 -5 -3 7 0
7 0
3 6 0
-7 0
1 2 4 6 0
6 0
3 5 7 0
1 5 0
